c FILE /home/rafael/Documents/HappySet/MIHS/inputs/happygen/output/graph_scale_free_k7_p0.1_v100_20241127_083850.txt
c SOURCE This is a scale-free graph formed for the happy graph colouring problem.
c DESCRIPTION It was generated using the problem generator of Rhyd Lewis
c
c GRAPH STATS
c Seed                             = -1320303954
c Number of Nodes                  = 100
c Number of colours k              = 7
c Number of pre-assignments        = 10
c Number of links per new node     = 5
c Density                          = 0.0979798
c 
c The degrees of nodes 1 to 100, respectively, are as follows 
c [40, 36, 36, 35, 34, 33, 21, 21, 19, 18, 18, 16, 16, 14, 13, 13, 13, 13, 13, 12, 11, 10, 10, 10, 10, 10, 
c  10, 10, 9, 9, 9, 9, 9, 9, 8, 8, 8, 8, 8, 8, 8, 8, 8, 8, 7, 7, 7, 7, 7, 7, 7, 
c  7, 7, 7, 7, 7, 7, 7, 7, 6, 6, 6, 6, 6, 6, 6, 6, 6, 6, 6, 5, 5, 5, 5, 5, 5, 
c  5, 5, 5, 5, 5, 5, 5, 5, 5, 5, 5, 5, 5, 5, 5, 5, 5, 5, 5, 5, 5, 5, 5, 5] 
c  
p edge 100 485 7
e 1 2
e 1 3
e 1 4
e 1 5
e 1 6
e 1 7
e 1 8
e 1 9
e 1 10
e 1 12
e 1 15
e 1 17
e 1 21
e 1 22
e 1 24
e 1 26
e 1 27
e 1 28
e 1 30
e 1 31
e 1 32
e 1 36
e 1 37
e 1 40
e 1 42
e 1 45
e 1 49
e 1 51
e 1 53
e 1 56
e 1 59
e 1 64
e 1 74
e 1 75
e 1 79
e 1 82
e 1 84
e 1 85
e 1 96
e 1 97
e 2 3
e 2 4
e 2 5
e 2 6
e 2 7
e 2 8
e 2 9
e 2 10
e 2 12
e 2 14
e 2 15
e 2 16
e 2 17
e 2 20
e 2 22
e 2 23
e 2 27
e 2 32
e 2 33
e 2 38
e 2 40
e 2 42
e 2 45
e 2 48
e 2 49
e 2 53
e 2 60
e 2 61
e 2 63
e 2 75
e 2 77
e 2 81
e 2 82
e 2 91
e 2 97
e 3 4
e 3 5
e 3 6
e 3 9
e 3 10
e 3 11
e 3 12
e 3 15
e 3 20
e 3 21
e 3 23
e 3 27
e 3 29
e 3 30
e 3 35
e 3 38
e 3 39
e 3 43
e 3 46
e 3 56
e 3 57
e 3 60
e 3 61
e 3 64
e 3 67
e 3 72
e 3 76
e 3 77
e 3 78
e 3 80
e 3 87
e 3 89
e 3 91
e 3 98
e 4 5
e 4 6
e 4 7
e 4 9
e 4 10
e 4 13
e 4 14
e 4 16
e 4 19
e 4 22
e 4 25
e 4 28
e 4 31
e 4 32
e 4 36
e 4 37
e 4 47
e 4 51
e 4 54
e 4 55
e 4 59
e 4 62
e 4 70
e 4 73
e 4 75
e 4 76
e 4 78
e 4 81
e 4 83
e 4 86
e 4 88
e 4 100
e 5 6
e 5 8
e 5 9
e 5 10
e 5 11
e 5 13
e 5 17
e 5 18
e 5 20
e 5 21
e 5 23
e 5 24
e 5 26
e 5 29
e 5 34
e 5 37
e 5 38
e 5 39
e 5 44
e 5 46
e 5 52
e 5 55
e 5 69
e 5 70
e 5 71
e 5 72
e 5 79
e 5 80
e 5 87
e 5 98
e 6 7
e 6 8
e 6 12
e 6 13
e 6 14
e 6 15
e 6 16
e 6 19
e 6 25
e 6 30
e 6 34
e 6 37
e 6 40
e 6 41
e 6 43
e 6 45
e 6 47
e 6 49
e 6 51
e 6 55
e 6 60
e 6 72
e 6 74
e 6 78
e 6 80
e 6 85
e 6 86
e 6 99
e 7 9
e 7 14
e 7 15
e 7 18
e 7 22
e 7 33
e 7 35
e 7 38
e 7 39
e 7 48
e 7 55
e 7 61
e 7 64
e 7 68
e 7 71
e 7 83
e 7 84
e 8 9
e 8 11
e 8 12
e 8 13
e 8 16
e 8 18
e 8 19
e 8 20
e 8 23
e 8 24
e 8 33
e 8 59
e 8 61
e 8 64
e 8 65
e 8 72
e 8 73
e 9 11
e 9 17
e 9 23
e 9 35
e 9 36
e 9 44
e 9 47
e 9 68
e 9 88
e 9 92
e 9 94
e 9 96
e 10 22
e 10 25
e 10 44
e 10 50
e 10 51
e 10 52
e 10 60
e 10 62
e 10 70
e 10 71
e 10 74
e 10 86
e 10 100
e 11 22
e 11 36
e 11 48
e 11 51
e 11 56
e 11 57
e 11 73
e 11 79
e 11 80
e 11 85
e 11 91
e 11 92
e 11 94
e 11 95
e 12 20
e 12 35
e 12 41
e 12 45
e 12 46
e 12 64
e 12 72
e 12 74
e 12 77
e 12 96
e 12 100
e 13 16
e 13 17
e 13 18
e 13 19
e 13 21
e 13 35
e 13 61
e 13 62
e 13 65
e 13 90
e 13 95
e 13 96
e 14 19
e 14 24
e 14 30
e 14 39
e 14 46
e 14 48
e 14 50
e 14 76
e 14 78
e 14 87
e 15 16
e 15 18
e 15 29
e 15 31
e 15 53
e 15 54
e 15 57
e 15 85
e 16 29
e 16 42
e 16 45
e 16 46
e 16 48
e 16 81
e 16 92
e 17 39
e 17 52
e 17 70
e 17 71
e 17 86
e 17 94
e 17 97
e 17 100
e 18 30
e 18 37
e 18 41
e 18 43
e 18 49
e 18 50
e 18 73
e 18 89
e 19 31
e 19 42
e 19 47
e 19 58
e 19 63
e 19 67
e 19 73
e 19 89
e 20 21
e 20 40
e 20 47
e 20 71
e 20 74
e 20 88
e 20 98
e 21 25
e 21 27
e 21 32
e 21 40
e 21 57
e 21 84
e 22 24
e 22 25
e 22 32
e 22 99
e 23 24
e 23 44
e 23 93
e 23 94
e 23 99
e 24 29
e 24 41
e 24 63
e 24 85
e 25 56
e 25 60
e 25 65
e 25 90
e 25 93
e 26 34
e 26 39
e 26 46
e 26 50
e 26 54
e 26 63
e 26 67
e 26 82
e 27 33
e 27 35
e 27 56
e 27 65
e 27 76
e 27 92
e 28 30
e 28 31
e 28 50
e 28 57
e 28 58
e 28 67
e 28 70
e 28 93
e 29 36
e 29 66
e 29 83
e 29 93
e 30 52
e 30 54
e 30 97
e 31 47
e 31 58
e 31 83
e 31 96
e 32 44
e 32 53
e 32 63
e 32 82
e 33 54
e 33 63
e 33 69
e 33 97
e 33 98
e 34 35
e 34 43
e 34 59
e 34 69
e 34 89
e 34 95
e 35 52
e 36 49
e 36 62
e 36 87
e 37 68
e 37 77
e 37 91
e 38 46
e 38 62
e 38 78
e 38 82
e 39 50
e 39 75
e 40 42
e 40 81
e 40 90
e 41 45
e 41 59
e 41 76
e 41 92
e 42 77
e 42 88
e 42 95
e 43 60
e 43 61
e 43 93
e 43 98
e 44 68
e 44 79
e 44 88
e 45 50
e 47 84
e 48 53
e 48 79
e 49 68
e 49 100
e 51 95
e 51 99
e 52 55
e 52 80
e 53 66
e 53 83
e 54 75
e 54 89
e 55 65
e 55 90
e 56 58
e 56 66
e 57 67
e 57 81
e 58 62
e 58 69
e 58 84
e 59 90
e 59 99
e 64 66
e 65 66
e 66 69
e 67 86
e 68 87
e 69 91
e 70 94
n 9 1
n 25 6
n 36 1
n 37 4
n 60 6
n 63 2
n 65 6
n 73 7
n 82 3
n 100 5
